StudentsNr = 10;
InstructorsNr = 71;
DaysNr = 1;
SlotsPerDay = 60;
AvailabilitySlotsLenght = 6;
RoomNr = 2;
ProgrammNr = 1;
DegreeNr = 2;
RolesNr = 2;
CoursesNr = 1;
InstructorsProgramm = [{1}, {1}, {1}, {1}, {1}, {1}, {1}, {1}, {1}, {1}, {1}, {1}, {1}, {1}, {1}, {1}, {1}, {1}, {1}, {1}, {1}, {1}, {1}, {1}, {1}, {1}, {1}, {1}, {1}, {1}, {1}, {1}, {1}, {1}, {1}, {1}, {1}, {1}, {1}, {1}, {1}, {1}, {1}, {1}, {1}, {1}, {1}, {1}, {1}, {1}, {1}, {1}, {1}, {1}, {1}, {1}, {1}, {1}, {1}, {1}, {1}, {1}, {1}, {1}, {1}, {1}, {1}, {1}, {1}, {1}, {1}];
InstructorRolesPerProgramm = [|{1, 2, 3, 4, 7, 8, 11, 12, 13, 15, 18, 20, 24, 25, 32, 35, 38, 39, 40, 41, 47, 51, 52, 53, 56, 58, 61, 63, 65, 66, 68, 69, 70}, {4, 5, 6, 8, 10, 12, 18, 20, 25, 26, 30, 33, 34, 35, 37, 41, 46, 47, 48, 52, 56, 57, 58, 62, 63, 65, 67}|];
InstructorsAvailability = [|0, 1, 1, 1, 1, 1, 1, 1, 0, 0, |1, 1, 0, 1, 1, 1, 1, 1, 1, 1, |1, 1, 1, 1, 1, 1, 1, 1, 1, 1, |0, 1, 1, 1, 1, 1, 1, 0, 1, 0, |0, 0, 0, 0, 1, 1, 1, 1, 1, 1, |0, 1, 1, 1, 1, 0, 0, 0, 0, 0, |1, 1, 1, 0, 1, 1, 1, 0, 0, 1, |1, 1, 0, 1, 1, 1, 1, 1, 1, 1, |1, 1, 1, 0, 1, 1, 1, 1, 1, 1, |1, 1, 1, 1, 1, 0, 1, 1, 1, 1, |1, 1, 1, 1, 1, 1, 1, 1, 0, 0, |1, 1, 1, 1, 0, 1, 1, 1, 0, 1, |0, 0, 0, 1, 1, 0, 1, 1, 1, 1, |0, 0, 0, 0, 0, 0, 0, 1, 1, 1, |1, 1, 1, 0, 1, 1, 1, 0, 1, 1, |0, 1, 1, 1, 1, 1, 1, 0, 1, 1, |0, 1, 1, 1, 1, 1, 1, 0, 1, 1, |0, 0, 1, 1, 1, 1, 1, 1, 1, 0, |1, 1, 1, 1, 1, 1, 1, 1, 1, 1, |1, 1, 1, 1, 0, 1, 1, 1, 1, 1, |1, 0, 0, 1, 1, 1, 1, 1, 1, 1, |1, 0, 0, 1, 0, 0, 0, 1, 1, 1, |0, 1, 1, 1, 1, 1, 1, 1, 1, 0, |1, 1, 1, 1, 1, 1, 1, 1, 1, 1, |0, 1, 1, 0, 1, 1, 1, 0, 0, 0, |1, 1, 0, 0, 0, 0, 0, 1, 1, 1, |1, 0, 0, 1, 0, 0, 1, 1, 1, 0, |0, 1, 1, 1, 1, 0, 1, 1, 1, 1, |0, 0, 0, 0, 1, 1, 1, 0, 1, 1, |1, 0, 1, 1, 0, 0, 1, 1, 1, 1, |0, 1, 1, 1, 0, 1, 1, 1, 1, 1, |1, 1, 1, 1, 0, 0, 0, 1, 1, 1, |1, 1, 1, 1, 1, 1, 0, 1, 1, 0, |1, 1, 1, 1, 0, 0, 1, 1, 1, 1, |1, 1, 1, 1, 1, 1, 1, 1, 1, 1, |1, 1, 1, 1, 1, 0, 0, 1, 1, 1, |0, 0, 0, 0, 1, 0, 0, 1, 1, 0, |0, 1, 1, 1, 0, 0, 0, 0, 1, 1, |1, 1, 1, 1, 0, 0, 1, 1, 1, 1, |0, 1, 1, 1, 1, 1, 0, 0, 1, 1, |0, 1, 1, 1, 1, 1, 1, 1, 1, 1, |1, 1, 1, 1, 1, 1, 1, 0, 0, 1, |1, 1, 1, 1, 1, 1, 0, 1, 1, 1, |0, 0, 1, 1, 1, 1, 1, 0, 1, 1, |1, 0, 0, 0, 0, 1, 1, 1, 1, 0, |1, 1, 1, 1, 1, 1, 1, 1, 1, 0, |0, 0, 1, 1, 0, 1, 1, 1, 1, 1, |1, 1, 1, 1, 0, 0, 0, 1, 1, 1, |0, 0, 1, 1, 0, 0, 1, 0, 0, 1, |1, 1, 1, 1, 0, 0, 1, 1, 1, 1, |1, 1, 1, 1, 1, 1, 0, 1, 0, 1, |1, 1, 1, 1, 0, 1, 0, 0, 0, 0, |1, 1, 1, 1, 1, 1, 1, 1, 1, 1, |0, 1, 1, 1, 1, 1, 1, 1, 1, 1, |1, 1, 1, 1, 0, 1, 1, 1, 1, 0, |1, 1, 1, 1, 1, 0, 1, 1, 1, 1, |0, 0, 0, 1, 1, 1, 1, 1, 1, 1, |1, 0, 1, 1, 1, 0, 1, 0, 1, 1, |0, 0, 1, 1, 1, 1, 0, 1, 1, 1, |1, 1, 1, 1, 1, 1, 1, 1, 1, 1, |1, 1, 1, 1, 1, 1, 1, 1, 1, 1, |1, 1, 0, 0, 1, 1, 1, 0, 0, 0, |0, 1, 1, 1, 1, 1, 1, 1, 1, 1, |0, 1, 1, 1, 1, 0, 0, 1, 1, 1, |0, 1, 0, 1, 1, 0, 1, 1, 1, 0, |1, 1, 1, 1, 0, 1, 0, 1, 1, 1, |1, 1, 1, 1, 1, 1, 1, 1, 1, 1, |1, 0, 0, 0, 1, 1, 1, 0, 1, 1, |0, 1, 1, 1, 1, 0, 1, 1, 1, 1, |0, 1, 1, 1, 1, 1, 0, 1, 0, 1, |1, 1, 1, 1, 1, 1, 1, 1, 1, 1|];
StudentsProgramm = [1, 1, 1, 1, 1, 1, 1, 1, 1, 1];
StudentsDegree = [2, 1, 1, 1, 1, 1, 2, 2, 2, 1];
StudentsSupervisorId = [70, 41, 21, 30, 51, 60, 20, 3, 42, 70];
StudentsCourseIds = [{1}, {1}, {1}, {1}, {1}, {1}, {1}, {1}, {1}, {1}];
StudentsAvailability = [|0, 0, 0, 0, 1, 0, 0, 0, 0, 1, |0, 1, 1, 1, 1, 1, 1, 1, 1, 1, |0, 0, 1, 1, 1, 1, 1, 1, 1, 1, |0, 1, 1, 1, 1, 1, 1, 1, 0, 0, |1, 1, 1, 1, 0, 0, 0, 1, 0, 0, |1, 1, 1, 1, 1, 1, 1, 1, 1, 1, |1, 1, 1, 1, 1, 1, 0, 0, 1, 1, |1, 1, 1, 1, 1, 1, 1, 1, 1, 0, |0, 0, 1, 1, 0, 1, 0, 1, 1, 1, |1, 1, 1, 0, 1, 1, 0, 1, 1, 1|];
TheoryticalMinCard = [0, 0, 1, 0, 0, 1, 0, 0, 1, 0];
CoursesInstructorIds = [{3, 4, 5, 6, 9, 14, 18, 28, 31, 32, 33, 34, 36, 44, 46, 53, 56, 57, 58, 62}];
RolesDemands = [3, 24];
RolesContinuity = [];
ExamLen = [1, 2, 2, 2, 2, 2, 1, 1, 1, 2];
LunchTsMinLen = 0;
LunchStarts = [21..34];
SupervisorAvailable = 5;
OptimalLunchLenght = [0, 0];
OptimalStartTs = [1, 0];
OptimalFinishTs = [1, 60];
MinimizeRooms = 300;
RolesSoftContinuity = [|1, 2|0, 1|];
SameDegreeInRoom = 20;
Mergeability = 2;
